lbl,CUST NO.,READY TIME,XCOORD.,YCOORD.,DEMAND,DUE DATE,SERVICE TIME
14,170,65,118,114,10,87,90
14,134,126,119,114,20,187,90
14,156,168,122,113,20,512,90
14,50,209,121,112,20,288,90
14,112,293,123,112,20,571,90
14,168,403,126,112,10,647,90
14,79,510,127,112,20,722,90
14,29,625,127,108,10,794,90
14,87,741,125,108,20,862,90
14,42,838,121,110,30,955,90
14,123,949,118,108,10,1031,90
